c 
c G(k,n,p) graph
c graph gen seed     : 27173
c number of vertices : 30
c max number of edges: 500
c number of classes  : 2
c edge density       : 0.800000
c edge probability   : 1.600000
c data structure     : dense
c
c           Graph Stats
c number of vertices  : 30
c nonisolated vertices: 30
c number of edges     : 225
c edge density        : 0.517241
c max degree          : 15
c avg degree          : 15.00
c min degree          : 15
p col 30 225
e 1 3
e 1 4
e 1 5
e 1 8
e 1 9
e 1 10
e 1 13
e 1 14
e 1 15
e 1 17
e 1 19
e 1 20
e 1 22
e 1 25
e 2 6
e 2 7
e 2 11
e 2 12
e 2 16
e 2 18
e 2 21
e 2 23
e 2 24
e 2 26
e 2 27
e 2 28
e 2 29
e 2 30
e 3 4
e 3 5
e 3 8
e 3 9
e 3 10
e 3 13
e 3 14
e 3 15
e 3 17
e 3 19
e 3 20
e 3 22
e 3 25
e 4 5
e 4 8
e 4 9
e 4 10
e 4 13
e 4 14
e 4 15
e 4 17
e 4 19
e 4 20
e 4 22
e 4 25
e 5 8
e 5 9
e 5 10
e 5 13
e 5 14
e 5 15
e 5 17
e 5 19
e 5 20
e 5 22
e 5 25
e 6 7
e 6 11
e 6 12
e 6 16
e 6 18
e 6 21
e 6 23
e 6 24
e 6 26
e 6 27
e 6 28
e 6 29
e 6 30
e 7 11
e 7 12
e 7 16
e 7 18
e 7 21
e 7 23
e 7 24
e 7 26
e 7 27
e 7 28
e 7 29
e 7 30
e 8 9
e 8 10
e 8 13
e 8 14
e 8 15
e 8 17
e 8 19
e 8 20
e 8 22
e 8 25
e 9 10
e 9 13
e 9 14
e 9 15
e 9 17
e 9 19
e 9 20
e 9 22
e 9 25
e 10 13
e 10 14
e 10 15
e 10 17
e 10 19
e 10 20
e 10 22
e 10 25
e 11 12
e 11 16
e 11 18
e 11 21
e 11 23
e 11 24
e 11 26
e 11 27
e 11 28
e 11 29
e 11 30
e 12 16
e 12 18
e 12 21
e 12 23
e 12 24
e 12 26
e 12 27
e 12 28
e 12 29
e 12 30
e 13 14
e 13 15
e 13 17
e 13 19
e 13 20
e 13 22
e 13 25
e 14 15
e 14 17
e 14 19
e 14 20
e 14 22
e 14 25
e 15 17
e 15 19
e 15 20
e 15 22
e 15 25
e 16 18
e 16 21
e 16 23
e 16 24
e 16 26
e 16 27
e 16 28
e 16 29
e 16 30
e 17 19
e 17 20
e 17 22
e 17 25
e 18 21
e 18 23
e 18 24
e 18 26
e 18 27
e 18 28
e 18 29
e 18 30
e 19 20
e 19 22
e 19 25
e 20 22
e 20 25
e 21 23
e 21 24
e 21 26
e 21 27
e 21 28
e 21 29
e 21 30
e 22 25
e 23 24
e 23 26
e 23 27
e 23 28
e 23 29
e 23 30
e 24 26
e 24 27
e 24 28
e 24 29
e 24 30
e 26 27
e 26 28
e 26 29
e 26 30
e 27 28
e 27 29
e 27 30
e 28 29
e 28 30
e 29 30
